(set-logic QF_LRA)
(declare-fun X0 () Real )
(declare-fun Y0 () Real )
(declare-fun X1 () Real )
(declare-fun Y1 () Real )
(declare-fun X2 () Real )
(declare-fun Y2 () Real )
(declare-fun X3 () Real )
(declare-fun Y3 () Real )
(declare-fun X4 () Real )
(declare-fun Y4 () Real )
(declare-fun X5 () Real )
(declare-fun Y5 () Real )
(declare-fun X6 () Real )
(declare-fun Y6 () Real )
(declare-fun X7 () Real )
(declare-fun Y7 () Real )
(declare-fun X8 () Real )
(declare-fun Y8 () Real )
(declare-fun X9 () Real )
(declare-fun Y9 () Real )
(declare-fun X10 () Real )
(declare-fun Y10 () Real )
(declare-fun X11 () Real )
(declare-fun Y11 () Real )
(declare-fun X12 () Real )
(declare-fun Y12 () Real )
(declare-fun X13 () Real )
(declare-fun Y13 () Real )
(declare-fun X14 () Real )
(declare-fun Y14 () Real )
(declare-fun X15 () Real )
(declare-fun Y15 () Real )
(declare-fun X16 () Real )
(declare-fun Y16 () Real )
(declare-fun X17 () Real )
(declare-fun Y17 () Real )
(declare-fun Z () Real )
(declare-fun k () Real )
(assert (let
(( $goal (>= Z k) ))
(let
((
$phi ( and 
( or ( <= ( + X0 28 ) X1 )  ( <= ( + X1 12 ) X0 )  ( <= ( + Y0 11 ) Y1 )  ( <= ( + Y1 54 ) Y0 )  )
( or ( <= ( + X0 28 ) X2 )  ( <= ( + X2 32 ) X0 )  ( <= ( + Y0 11 ) Y2 )  ( <= ( + Y2 56 ) Y0 )  )
( or ( <= ( + X0 28 ) X3 )  ( <= ( + X3 87 ) X0 )  ( <= ( + Y0 11 ) Y3 )  ( <= ( + Y3 48 ) Y0 )  )
( or ( <= ( + X0 28 ) X4 )  ( <= ( + X4 1 ) X0 )  ( <= ( + Y0 11 ) Y4 )  ( <= ( + Y4 49 ) Y0 )  )
( or ( <= ( + X0 28 ) X5 )  ( <= ( + X5 64 ) X0 )  ( <= ( + Y0 11 ) Y5 )  ( <= ( + Y5 23 ) Y0 )  )
( or ( <= ( + X0 28 ) X6 )  ( <= ( + X6 71 ) X0 )  ( <= ( + Y0 11 ) Y6 )  ( <= ( + Y6 6 ) Y0 )  )
( or ( <= ( + X0 28 ) X7 )  ( <= ( + X7 57 ) X0 )  ( <= ( + Y0 11 ) Y7 )  ( <= ( + Y7 31 ) Y0 )  )
( or ( <= ( + X0 28 ) X8 )  ( <= ( + X8 48 ) X0 )  ( <= ( + Y0 11 ) Y8 )  ( <= ( + Y8 67 ) Y0 )  )
( or ( <= ( + X0 28 ) X9 )  ( <= ( + X9 3 ) X0 )  ( <= ( + Y0 11 ) Y9 )  ( <= ( + Y9 4 ) Y0 )  )
( or ( <= ( + X0 28 ) X10 )  ( <= ( + X10 47 ) X0 )  ( <= ( + Y0 11 ) Y10 )  ( <= ( + Y10 28 ) Y0 )  )
( or ( <= ( + X0 28 ) X11 )  ( <= ( + X11 37 ) X0 )  ( <= ( + Y0 11 ) Y11 )  ( <= ( + Y11 25 ) Y0 )  )
( or ( <= ( + X0 28 ) X12 )  ( <= ( + X12 55 ) X0 )  ( <= ( + Y0 11 ) Y12 )  ( <= ( + Y12 88 ) Y0 )  )
( or ( <= ( + X0 28 ) X13 )  ( <= ( + X13 15 ) X0 )  ( <= ( + Y0 11 ) Y13 )  ( <= ( + Y13 7 ) Y0 )  )
( or ( <= ( + X0 28 ) X14 )  ( <= ( + X14 18 ) X0 )  ( <= ( + Y0 11 ) Y14 )  ( <= ( + Y14 89 ) Y0 )  )
( or ( <= ( + X0 28 ) X15 )  ( <= ( + X15 38 ) X0 )  ( <= ( + Y0 11 ) Y15 )  ( <= ( + Y15 71 ) Y0 )  )
( or ( <= ( + X0 28 ) X16 )  ( <= ( + X16 32 ) X0 )  ( <= ( + Y0 11 ) Y16 )  ( <= ( + Y16 46 ) Y0 )  )
( or ( <= ( + X0 28 ) X17 )  ( <= ( + X17 49 ) X0 )  ( <= ( + Y0 11 ) Y17 )  ( <= ( + Y17 41 ) Y0 )  )
( or ( <= ( + X1 12 ) X2 )  ( <= ( + X2 32 ) X1 )  ( <= ( + Y1 54 ) Y2 )  ( <= ( + Y2 56 ) Y1 )  )
( or ( <= ( + X1 12 ) X3 )  ( <= ( + X3 87 ) X1 )  ( <= ( + Y1 54 ) Y3 )  ( <= ( + Y3 48 ) Y1 )  )
( or ( <= ( + X1 12 ) X4 )  ( <= ( + X4 1 ) X1 )  ( <= ( + Y1 54 ) Y4 )  ( <= ( + Y4 49 ) Y1 )  )
( or ( <= ( + X1 12 ) X5 )  ( <= ( + X5 64 ) X1 )  ( <= ( + Y1 54 ) Y5 )  ( <= ( + Y5 23 ) Y1 )  )
( or ( <= ( + X1 12 ) X6 )  ( <= ( + X6 71 ) X1 )  ( <= ( + Y1 54 ) Y6 )  ( <= ( + Y6 6 ) Y1 )  )
( or ( <= ( + X1 12 ) X7 )  ( <= ( + X7 57 ) X1 )  ( <= ( + Y1 54 ) Y7 )  ( <= ( + Y7 31 ) Y1 )  )
( or ( <= ( + X1 12 ) X8 )  ( <= ( + X8 48 ) X1 )  ( <= ( + Y1 54 ) Y8 )  ( <= ( + Y8 67 ) Y1 )  )
( or ( <= ( + X1 12 ) X9 )  ( <= ( + X9 3 ) X1 )  ( <= ( + Y1 54 ) Y9 )  ( <= ( + Y9 4 ) Y1 )  )
( or ( <= ( + X1 12 ) X10 )  ( <= ( + X10 47 ) X1 )  ( <= ( + Y1 54 ) Y10 )  ( <= ( + Y10 28 ) Y1 )  )
( or ( <= ( + X1 12 ) X11 )  ( <= ( + X11 37 ) X1 )  ( <= ( + Y1 54 ) Y11 )  ( <= ( + Y11 25 ) Y1 )  )
( or ( <= ( + X1 12 ) X12 )  ( <= ( + X12 55 ) X1 )  ( <= ( + Y1 54 ) Y12 )  ( <= ( + Y12 88 ) Y1 )  )
( or ( <= ( + X1 12 ) X13 )  ( <= ( + X13 15 ) X1 )  ( <= ( + Y1 54 ) Y13 )  ( <= ( + Y13 7 ) Y1 )  )
( or ( <= ( + X1 12 ) X14 )  ( <= ( + X14 18 ) X1 )  ( <= ( + Y1 54 ) Y14 )  ( <= ( + Y14 89 ) Y1 )  )
( or ( <= ( + X1 12 ) X15 )  ( <= ( + X15 38 ) X1 )  ( <= ( + Y1 54 ) Y15 )  ( <= ( + Y15 71 ) Y1 )  )
( or ( <= ( + X1 12 ) X16 )  ( <= ( + X16 32 ) X1 )  ( <= ( + Y1 54 ) Y16 )  ( <= ( + Y16 46 ) Y1 )  )
( or ( <= ( + X1 12 ) X17 )  ( <= ( + X17 49 ) X1 )  ( <= ( + Y1 54 ) Y17 )  ( <= ( + Y17 41 ) Y1 )  )
( or ( <= ( + X2 32 ) X3 )  ( <= ( + X3 87 ) X2 )  ( <= ( + Y2 56 ) Y3 )  ( <= ( + Y3 48 ) Y2 )  )
( or ( <= ( + X2 32 ) X4 )  ( <= ( + X4 1 ) X2 )  ( <= ( + Y2 56 ) Y4 )  ( <= ( + Y4 49 ) Y2 )  )
( or ( <= ( + X2 32 ) X5 )  ( <= ( + X5 64 ) X2 )  ( <= ( + Y2 56 ) Y5 )  ( <= ( + Y5 23 ) Y2 )  )
( or ( <= ( + X2 32 ) X6 )  ( <= ( + X6 71 ) X2 )  ( <= ( + Y2 56 ) Y6 )  ( <= ( + Y6 6 ) Y2 )  )
( or ( <= ( + X2 32 ) X7 )  ( <= ( + X7 57 ) X2 )  ( <= ( + Y2 56 ) Y7 )  ( <= ( + Y7 31 ) Y2 )  )
( or ( <= ( + X2 32 ) X8 )  ( <= ( + X8 48 ) X2 )  ( <= ( + Y2 56 ) Y8 )  ( <= ( + Y8 67 ) Y2 )  )
( or ( <= ( + X2 32 ) X9 )  ( <= ( + X9 3 ) X2 )  ( <= ( + Y2 56 ) Y9 )  ( <= ( + Y9 4 ) Y2 )  )
( or ( <= ( + X2 32 ) X10 )  ( <= ( + X10 47 ) X2 )  ( <= ( + Y2 56 ) Y10 )  ( <= ( + Y10 28 ) Y2 )  )
( or ( <= ( + X2 32 ) X11 )  ( <= ( + X11 37 ) X2 )  ( <= ( + Y2 56 ) Y11 )  ( <= ( + Y11 25 ) Y2 )  )
( or ( <= ( + X2 32 ) X12 )  ( <= ( + X12 55 ) X2 )  ( <= ( + Y2 56 ) Y12 )  ( <= ( + Y12 88 ) Y2 )  )
( or ( <= ( + X2 32 ) X13 )  ( <= ( + X13 15 ) X2 )  ( <= ( + Y2 56 ) Y13 )  ( <= ( + Y13 7 ) Y2 )  )
( or ( <= ( + X2 32 ) X14 )  ( <= ( + X14 18 ) X2 )  ( <= ( + Y2 56 ) Y14 )  ( <= ( + Y14 89 ) Y2 )  )
( or ( <= ( + X2 32 ) X15 )  ( <= ( + X15 38 ) X2 )  ( <= ( + Y2 56 ) Y15 )  ( <= ( + Y15 71 ) Y2 )  )
( or ( <= ( + X2 32 ) X16 )  ( <= ( + X16 32 ) X2 )  ( <= ( + Y2 56 ) Y16 )  ( <= ( + Y16 46 ) Y2 )  )
( or ( <= ( + X2 32 ) X17 )  ( <= ( + X17 49 ) X2 )  ( <= ( + Y2 56 ) Y17 )  ( <= ( + Y17 41 ) Y2 )  )
( or ( <= ( + X3 87 ) X4 )  ( <= ( + X4 1 ) X3 )  ( <= ( + Y3 48 ) Y4 )  ( <= ( + Y4 49 ) Y3 )  )
( or ( <= ( + X3 87 ) X5 )  ( <= ( + X5 64 ) X3 )  ( <= ( + Y3 48 ) Y5 )  ( <= ( + Y5 23 ) Y3 )  )
( or ( <= ( + X3 87 ) X6 )  ( <= ( + X6 71 ) X3 )  ( <= ( + Y3 48 ) Y6 )  ( <= ( + Y6 6 ) Y3 )  )
( or ( <= ( + X3 87 ) X7 )  ( <= ( + X7 57 ) X3 )  ( <= ( + Y3 48 ) Y7 )  ( <= ( + Y7 31 ) Y3 )  )
( or ( <= ( + X3 87 ) X8 )  ( <= ( + X8 48 ) X3 )  ( <= ( + Y3 48 ) Y8 )  ( <= ( + Y8 67 ) Y3 )  )
( or ( <= ( + X3 87 ) X9 )  ( <= ( + X9 3 ) X3 )  ( <= ( + Y3 48 ) Y9 )  ( <= ( + Y9 4 ) Y3 )  )
( or ( <= ( + X3 87 ) X10 )  ( <= ( + X10 47 ) X3 )  ( <= ( + Y3 48 ) Y10 )  ( <= ( + Y10 28 ) Y3 )  )
( or ( <= ( + X3 87 ) X11 )  ( <= ( + X11 37 ) X3 )  ( <= ( + Y3 48 ) Y11 )  ( <= ( + Y11 25 ) Y3 )  )
( or ( <= ( + X3 87 ) X12 )  ( <= ( + X12 55 ) X3 )  ( <= ( + Y3 48 ) Y12 )  ( <= ( + Y12 88 ) Y3 )  )
( or ( <= ( + X3 87 ) X13 )  ( <= ( + X13 15 ) X3 )  ( <= ( + Y3 48 ) Y13 )  ( <= ( + Y13 7 ) Y3 )  )
( or ( <= ( + X3 87 ) X14 )  ( <= ( + X14 18 ) X3 )  ( <= ( + Y3 48 ) Y14 )  ( <= ( + Y14 89 ) Y3 )  )
( or ( <= ( + X3 87 ) X15 )  ( <= ( + X15 38 ) X3 )  ( <= ( + Y3 48 ) Y15 )  ( <= ( + Y15 71 ) Y3 )  )
( or ( <= ( + X3 87 ) X16 )  ( <= ( + X16 32 ) X3 )  ( <= ( + Y3 48 ) Y16 )  ( <= ( + Y16 46 ) Y3 )  )
( or ( <= ( + X3 87 ) X17 )  ( <= ( + X17 49 ) X3 )  ( <= ( + Y3 48 ) Y17 )  ( <= ( + Y17 41 ) Y3 )  )
( or ( <= ( + X4 1 ) X5 )  ( <= ( + X5 64 ) X4 )  ( <= ( + Y4 49 ) Y5 )  ( <= ( + Y5 23 ) Y4 )  )
( or ( <= ( + X4 1 ) X6 )  ( <= ( + X6 71 ) X4 )  ( <= ( + Y4 49 ) Y6 )  ( <= ( + Y6 6 ) Y4 )  )
( or ( <= ( + X4 1 ) X7 )  ( <= ( + X7 57 ) X4 )  ( <= ( + Y4 49 ) Y7 )  ( <= ( + Y7 31 ) Y4 )  )
( or ( <= ( + X4 1 ) X8 )  ( <= ( + X8 48 ) X4 )  ( <= ( + Y4 49 ) Y8 )  ( <= ( + Y8 67 ) Y4 )  )
( or ( <= ( + X4 1 ) X9 )  ( <= ( + X9 3 ) X4 )  ( <= ( + Y4 49 ) Y9 )  ( <= ( + Y9 4 ) Y4 )  )
( or ( <= ( + X4 1 ) X10 )  ( <= ( + X10 47 ) X4 )  ( <= ( + Y4 49 ) Y10 )  ( <= ( + Y10 28 ) Y4 )  )
( or ( <= ( + X4 1 ) X11 )  ( <= ( + X11 37 ) X4 )  ( <= ( + Y4 49 ) Y11 )  ( <= ( + Y11 25 ) Y4 )  )
( or ( <= ( + X4 1 ) X12 )  ( <= ( + X12 55 ) X4 )  ( <= ( + Y4 49 ) Y12 )  ( <= ( + Y12 88 ) Y4 )  )
( or ( <= ( + X4 1 ) X13 )  ( <= ( + X13 15 ) X4 )  ( <= ( + Y4 49 ) Y13 )  ( <= ( + Y13 7 ) Y4 )  )
( or ( <= ( + X4 1 ) X14 )  ( <= ( + X14 18 ) X4 )  ( <= ( + Y4 49 ) Y14 )  ( <= ( + Y14 89 ) Y4 )  )
( or ( <= ( + X4 1 ) X15 )  ( <= ( + X15 38 ) X4 )  ( <= ( + Y4 49 ) Y15 )  ( <= ( + Y15 71 ) Y4 )  )
( or ( <= ( + X4 1 ) X16 )  ( <= ( + X16 32 ) X4 )  ( <= ( + Y4 49 ) Y16 )  ( <= ( + Y16 46 ) Y4 )  )
( or ( <= ( + X4 1 ) X17 )  ( <= ( + X17 49 ) X4 )  ( <= ( + Y4 49 ) Y17 )  ( <= ( + Y17 41 ) Y4 )  )
( or ( <= ( + X5 64 ) X6 )  ( <= ( + X6 71 ) X5 )  ( <= ( + Y5 23 ) Y6 )  ( <= ( + Y6 6 ) Y5 )  )
( or ( <= ( + X5 64 ) X7 )  ( <= ( + X7 57 ) X5 )  ( <= ( + Y5 23 ) Y7 )  ( <= ( + Y7 31 ) Y5 )  )
( or ( <= ( + X5 64 ) X8 )  ( <= ( + X8 48 ) X5 )  ( <= ( + Y5 23 ) Y8 )  ( <= ( + Y8 67 ) Y5 )  )
( or ( <= ( + X5 64 ) X9 )  ( <= ( + X9 3 ) X5 )  ( <= ( + Y5 23 ) Y9 )  ( <= ( + Y9 4 ) Y5 )  )
( or ( <= ( + X5 64 ) X10 )  ( <= ( + X10 47 ) X5 )  ( <= ( + Y5 23 ) Y10 )  ( <= ( + Y10 28 ) Y5 )  )
( or ( <= ( + X5 64 ) X11 )  ( <= ( + X11 37 ) X5 )  ( <= ( + Y5 23 ) Y11 )  ( <= ( + Y11 25 ) Y5 )  )
( or ( <= ( + X5 64 ) X12 )  ( <= ( + X12 55 ) X5 )  ( <= ( + Y5 23 ) Y12 )  ( <= ( + Y12 88 ) Y5 )  )
( or ( <= ( + X5 64 ) X13 )  ( <= ( + X13 15 ) X5 )  ( <= ( + Y5 23 ) Y13 )  ( <= ( + Y13 7 ) Y5 )  )
( or ( <= ( + X5 64 ) X14 )  ( <= ( + X14 18 ) X5 )  ( <= ( + Y5 23 ) Y14 )  ( <= ( + Y14 89 ) Y5 )  )
( or ( <= ( + X5 64 ) X15 )  ( <= ( + X15 38 ) X5 )  ( <= ( + Y5 23 ) Y15 )  ( <= ( + Y15 71 ) Y5 )  )
( or ( <= ( + X5 64 ) X16 )  ( <= ( + X16 32 ) X5 )  ( <= ( + Y5 23 ) Y16 )  ( <= ( + Y16 46 ) Y5 )  )
( or ( <= ( + X5 64 ) X17 )  ( <= ( + X17 49 ) X5 )  ( <= ( + Y5 23 ) Y17 )  ( <= ( + Y17 41 ) Y5 )  )
( or ( <= ( + X6 71 ) X7 )  ( <= ( + X7 57 ) X6 )  ( <= ( + Y6 6 ) Y7 )  ( <= ( + Y7 31 ) Y6 )  )
( or ( <= ( + X6 71 ) X8 )  ( <= ( + X8 48 ) X6 )  ( <= ( + Y6 6 ) Y8 )  ( <= ( + Y8 67 ) Y6 )  )
( or ( <= ( + X6 71 ) X9 )  ( <= ( + X9 3 ) X6 )  ( <= ( + Y6 6 ) Y9 )  ( <= ( + Y9 4 ) Y6 )  )
( or ( <= ( + X6 71 ) X10 )  ( <= ( + X10 47 ) X6 )  ( <= ( + Y6 6 ) Y10 )  ( <= ( + Y10 28 ) Y6 )  )
( or ( <= ( + X6 71 ) X11 )  ( <= ( + X11 37 ) X6 )  ( <= ( + Y6 6 ) Y11 )  ( <= ( + Y11 25 ) Y6 )  )
( or ( <= ( + X6 71 ) X12 )  ( <= ( + X12 55 ) X6 )  ( <= ( + Y6 6 ) Y12 )  ( <= ( + Y12 88 ) Y6 )  )
( or ( <= ( + X6 71 ) X13 )  ( <= ( + X13 15 ) X6 )  ( <= ( + Y6 6 ) Y13 )  ( <= ( + Y13 7 ) Y6 )  )
( or ( <= ( + X6 71 ) X14 )  ( <= ( + X14 18 ) X6 )  ( <= ( + Y6 6 ) Y14 )  ( <= ( + Y14 89 ) Y6 )  )
( or ( <= ( + X6 71 ) X15 )  ( <= ( + X15 38 ) X6 )  ( <= ( + Y6 6 ) Y15 )  ( <= ( + Y15 71 ) Y6 )  )
( or ( <= ( + X6 71 ) X16 )  ( <= ( + X16 32 ) X6 )  ( <= ( + Y6 6 ) Y16 )  ( <= ( + Y16 46 ) Y6 )  )
( or ( <= ( + X6 71 ) X17 )  ( <= ( + X17 49 ) X6 )  ( <= ( + Y6 6 ) Y17 )  ( <= ( + Y17 41 ) Y6 )  )
( or ( <= ( + X7 57 ) X8 )  ( <= ( + X8 48 ) X7 )  ( <= ( + Y7 31 ) Y8 )  ( <= ( + Y8 67 ) Y7 )  )
( or ( <= ( + X7 57 ) X9 )  ( <= ( + X9 3 ) X7 )  ( <= ( + Y7 31 ) Y9 )  ( <= ( + Y9 4 ) Y7 )  )
( or ( <= ( + X7 57 ) X10 )  ( <= ( + X10 47 ) X7 )  ( <= ( + Y7 31 ) Y10 )  ( <= ( + Y10 28 ) Y7 )  )
( or ( <= ( + X7 57 ) X11 )  ( <= ( + X11 37 ) X7 )  ( <= ( + Y7 31 ) Y11 )  ( <= ( + Y11 25 ) Y7 )  )
( or ( <= ( + X7 57 ) X12 )  ( <= ( + X12 55 ) X7 )  ( <= ( + Y7 31 ) Y12 )  ( <= ( + Y12 88 ) Y7 )  )
( or ( <= ( + X7 57 ) X13 )  ( <= ( + X13 15 ) X7 )  ( <= ( + Y7 31 ) Y13 )  ( <= ( + Y13 7 ) Y7 )  )
( or ( <= ( + X7 57 ) X14 )  ( <= ( + X14 18 ) X7 )  ( <= ( + Y7 31 ) Y14 )  ( <= ( + Y14 89 ) Y7 )  )
( or ( <= ( + X7 57 ) X15 )  ( <= ( + X15 38 ) X7 )  ( <= ( + Y7 31 ) Y15 )  ( <= ( + Y15 71 ) Y7 )  )
( or ( <= ( + X7 57 ) X16 )  ( <= ( + X16 32 ) X7 )  ( <= ( + Y7 31 ) Y16 )  ( <= ( + Y16 46 ) Y7 )  )
( or ( <= ( + X7 57 ) X17 )  ( <= ( + X17 49 ) X7 )  ( <= ( + Y7 31 ) Y17 )  ( <= ( + Y17 41 ) Y7 )  )
( or ( <= ( + X8 48 ) X9 )  ( <= ( + X9 3 ) X8 )  ( <= ( + Y8 67 ) Y9 )  ( <= ( + Y9 4 ) Y8 )  )
( or ( <= ( + X8 48 ) X10 )  ( <= ( + X10 47 ) X8 )  ( <= ( + Y8 67 ) Y10 )  ( <= ( + Y10 28 ) Y8 )  )
( or ( <= ( + X8 48 ) X11 )  ( <= ( + X11 37 ) X8 )  ( <= ( + Y8 67 ) Y11 )  ( <= ( + Y11 25 ) Y8 )  )
( or ( <= ( + X8 48 ) X12 )  ( <= ( + X12 55 ) X8 )  ( <= ( + Y8 67 ) Y12 )  ( <= ( + Y12 88 ) Y8 )  )
( or ( <= ( + X8 48 ) X13 )  ( <= ( + X13 15 ) X8 )  ( <= ( + Y8 67 ) Y13 )  ( <= ( + Y13 7 ) Y8 )  )
( or ( <= ( + X8 48 ) X14 )  ( <= ( + X14 18 ) X8 )  ( <= ( + Y8 67 ) Y14 )  ( <= ( + Y14 89 ) Y8 )  )
( or ( <= ( + X8 48 ) X15 )  ( <= ( + X15 38 ) X8 )  ( <= ( + Y8 67 ) Y15 )  ( <= ( + Y15 71 ) Y8 )  )
( or ( <= ( + X8 48 ) X16 )  ( <= ( + X16 32 ) X8 )  ( <= ( + Y8 67 ) Y16 )  ( <= ( + Y16 46 ) Y8 )  )
( or ( <= ( + X8 48 ) X17 )  ( <= ( + X17 49 ) X8 )  ( <= ( + Y8 67 ) Y17 )  ( <= ( + Y17 41 ) Y8 )  )
( or ( <= ( + X9 3 ) X10 )  ( <= ( + X10 47 ) X9 )  ( <= ( + Y9 4 ) Y10 )  ( <= ( + Y10 28 ) Y9 )  )
( or ( <= ( + X9 3 ) X11 )  ( <= ( + X11 37 ) X9 )  ( <= ( + Y9 4 ) Y11 )  ( <= ( + Y11 25 ) Y9 )  )
( or ( <= ( + X9 3 ) X12 )  ( <= ( + X12 55 ) X9 )  ( <= ( + Y9 4 ) Y12 )  ( <= ( + Y12 88 ) Y9 )  )
( or ( <= ( + X9 3 ) X13 )  ( <= ( + X13 15 ) X9 )  ( <= ( + Y9 4 ) Y13 )  ( <= ( + Y13 7 ) Y9 )  )
( or ( <= ( + X9 3 ) X14 )  ( <= ( + X14 18 ) X9 )  ( <= ( + Y9 4 ) Y14 )  ( <= ( + Y14 89 ) Y9 )  )
( or ( <= ( + X9 3 ) X15 )  ( <= ( + X15 38 ) X9 )  ( <= ( + Y9 4 ) Y15 )  ( <= ( + Y15 71 ) Y9 )  )
( or ( <= ( + X9 3 ) X16 )  ( <= ( + X16 32 ) X9 )  ( <= ( + Y9 4 ) Y16 )  ( <= ( + Y16 46 ) Y9 )  )
( or ( <= ( + X9 3 ) X17 )  ( <= ( + X17 49 ) X9 )  ( <= ( + Y9 4 ) Y17 )  ( <= ( + Y17 41 ) Y9 )  )
( or ( <= ( + X10 47 ) X11 )  ( <= ( + X11 37 ) X10 )  ( <= ( + Y10 28 ) Y11 )  ( <= ( + Y11 25 ) Y10 )  )
( or ( <= ( + X10 47 ) X12 )  ( <= ( + X12 55 ) X10 )  ( <= ( + Y10 28 ) Y12 )  ( <= ( + Y12 88 ) Y10 )  )
( or ( <= ( + X10 47 ) X13 )  ( <= ( + X13 15 ) X10 )  ( <= ( + Y10 28 ) Y13 )  ( <= ( + Y13 7 ) Y10 )  )
( or ( <= ( + X10 47 ) X14 )  ( <= ( + X14 18 ) X10 )  ( <= ( + Y10 28 ) Y14 )  ( <= ( + Y14 89 ) Y10 )  )
( or ( <= ( + X10 47 ) X15 )  ( <= ( + X15 38 ) X10 )  ( <= ( + Y10 28 ) Y15 )  ( <= ( + Y15 71 ) Y10 )  )
( or ( <= ( + X10 47 ) X16 )  ( <= ( + X16 32 ) X10 )  ( <= ( + Y10 28 ) Y16 )  ( <= ( + Y16 46 ) Y10 )  )
( or ( <= ( + X10 47 ) X17 )  ( <= ( + X17 49 ) X10 )  ( <= ( + Y10 28 ) Y17 )  ( <= ( + Y17 41 ) Y10 )  )
( or ( <= ( + X11 37 ) X12 )  ( <= ( + X12 55 ) X11 )  ( <= ( + Y11 25 ) Y12 )  ( <= ( + Y12 88 ) Y11 )  )
( or ( <= ( + X11 37 ) X13 )  ( <= ( + X13 15 ) X11 )  ( <= ( + Y11 25 ) Y13 )  ( <= ( + Y13 7 ) Y11 )  )
( or ( <= ( + X11 37 ) X14 )  ( <= ( + X14 18 ) X11 )  ( <= ( + Y11 25 ) Y14 )  ( <= ( + Y14 89 ) Y11 )  )
( or ( <= ( + X11 37 ) X15 )  ( <= ( + X15 38 ) X11 )  ( <= ( + Y11 25 ) Y15 )  ( <= ( + Y15 71 ) Y11 )  )
( or ( <= ( + X11 37 ) X16 )  ( <= ( + X16 32 ) X11 )  ( <= ( + Y11 25 ) Y16 )  ( <= ( + Y16 46 ) Y11 )  )
( or ( <= ( + X11 37 ) X17 )  ( <= ( + X17 49 ) X11 )  ( <= ( + Y11 25 ) Y17 )  ( <= ( + Y17 41 ) Y11 )  )
( or ( <= ( + X12 55 ) X13 )  ( <= ( + X13 15 ) X12 )  ( <= ( + Y12 88 ) Y13 )  ( <= ( + Y13 7 ) Y12 )  )
( or ( <= ( + X12 55 ) X14 )  ( <= ( + X14 18 ) X12 )  ( <= ( + Y12 88 ) Y14 )  ( <= ( + Y14 89 ) Y12 )  )
( or ( <= ( + X12 55 ) X15 )  ( <= ( + X15 38 ) X12 )  ( <= ( + Y12 88 ) Y15 )  ( <= ( + Y15 71 ) Y12 )  )
( or ( <= ( + X12 55 ) X16 )  ( <= ( + X16 32 ) X12 )  ( <= ( + Y12 88 ) Y16 )  ( <= ( + Y16 46 ) Y12 )  )
( or ( <= ( + X12 55 ) X17 )  ( <= ( + X17 49 ) X12 )  ( <= ( + Y12 88 ) Y17 )  ( <= ( + Y17 41 ) Y12 )  )
( or ( <= ( + X13 15 ) X14 )  ( <= ( + X14 18 ) X13 )  ( <= ( + Y13 7 ) Y14 )  ( <= ( + Y14 89 ) Y13 )  )
( or ( <= ( + X13 15 ) X15 )  ( <= ( + X15 38 ) X13 )  ( <= ( + Y13 7 ) Y15 )  ( <= ( + Y15 71 ) Y13 )  )
( or ( <= ( + X13 15 ) X16 )  ( <= ( + X16 32 ) X13 )  ( <= ( + Y13 7 ) Y16 )  ( <= ( + Y16 46 ) Y13 )  )
( or ( <= ( + X13 15 ) X17 )  ( <= ( + X17 49 ) X13 )  ( <= ( + Y13 7 ) Y17 )  ( <= ( + Y17 41 ) Y13 )  )
( or ( <= ( + X14 18 ) X15 )  ( <= ( + X15 38 ) X14 )  ( <= ( + Y14 89 ) Y15 )  ( <= ( + Y15 71 ) Y14 )  )
( or ( <= ( + X14 18 ) X16 )  ( <= ( + X16 32 ) X14 )  ( <= ( + Y14 89 ) Y16 )  ( <= ( + Y16 46 ) Y14 )  )
( or ( <= ( + X14 18 ) X17 )  ( <= ( + X17 49 ) X14 )  ( <= ( + Y14 89 ) Y17 )  ( <= ( + Y17 41 ) Y14 )  )
( or ( <= ( + X15 38 ) X16 )  ( <= ( + X16 32 ) X15 )  ( <= ( + Y15 71 ) Y16 )  ( <= ( + Y16 46 ) Y15 )  )
( or ( <= ( + X15 38 ) X17 )  ( <= ( + X17 49 ) X15 )  ( <= ( + Y15 71 ) Y17 )  ( <= ( + Y17 41 ) Y15 )  )
( or ( <= ( + X16 32 ) X17 )  ( <= ( + X17 49 ) X16 )  ( <= ( + Y16 46 ) Y17 )  ( <= ( + Y17 41 ) Y16 )  )
( >= X0 0)
( <= ( + X0 28) Z)
( >= Y0 0)
( <= ( + Y0 11 ) 100)
( >= X1 0)
( <= ( + X1 12) Z)
( >= Y1 0)
( <= ( + Y1 54 ) 100)
( >= X2 0)
( <= ( + X2 32) Z)
( >= Y2 0)
( <= ( + Y2 56 ) 100)
( >= X3 0)
( <= ( + X3 87) Z)
( >= Y3 0)
( <= ( + Y3 48 ) 100)
( >= X4 0)
( <= ( + X4 1) Z)
( >= Y4 0)
( <= ( + Y4 49 ) 100)
( >= X5 0)
( <= ( + X5 64) Z)
( >= Y5 0)
( <= ( + Y5 23 ) 100)
( >= X6 0)
( <= ( + X6 71) Z)
( >= Y6 0)
( <= ( + Y6 6 ) 100)
( >= X7 0)
( <= ( + X7 57) Z)
( >= Y7 0)
( <= ( + Y7 31 ) 100)
( >= X8 0)
( <= ( + X8 48) Z)
( >= Y8 0)
( <= ( + Y8 67 ) 100)
( >= X9 0)
( <= ( + X9 3) Z)
( >= Y9 0)
( <= ( + Y9 4 ) 100)
( >= X10 0)
( <= ( + X10 47) Z)
( >= Y10 0)
( <= ( + Y10 28 ) 100)
( >= X11 0)
( <= ( + X11 37) Z)
( >= Y11 0)
( <= ( + Y11 25 ) 100)
( >= X12 0)
( <= ( + X12 55) Z)
( >= Y12 0)
( <= ( + Y12 88 ) 100)
( >= X13 0)
( <= ( + X13 15) Z)
( >= Y13 0)
( <= ( + Y13 7 ) 100)
( >= X14 0)
( <= ( + X14 18) Z)
( >= Y14 0)
( <= ( + Y14 89 ) 100)
( >= X15 0)
( <= ( + X15 38) Z)
( >= Y15 0)
( <= ( + Y15 71 ) 100)
( >= X16 0)
( <= ( + X16 32) Z)
( >= Y16 0)
( <= ( + Y16 46 ) 100)
( >= X17 0)
( <= ( + X17 49) Z)
( >= Y17 0)
( <= ( + Y17 41 ) 100)
) )
)(=> $phi $goal))))